9
0, 394, 576, 343, 821, 276, 359, 530, 630
394, 0, 186, 358, 434, 452, 303, 355, 374
576, 186, 0, 519, 247, 630, 457, 446, 303
343, 358, 519, 0, 749, 149, 65, 219, 726
821, 434, 247, 749, 0, 870, 684, 631, 373
276, 452, 630, 149, 870, 0, 209, 367, 794
359, 303, 457, 65, 684, 209, 0, 175, 676
530, 355, 446, 219, 631, 367, 175, 0, 719
630, 374, 303, 726, 373, 794, 676, 719, 0
